Minimize
  obj: x0 + x1 + x2 + x3 + x4 + x5 + x6 + x7 + x8 + x9 + x10 + x11 + x12

Subject To
  c0: x0 + x1 + x4 + x6 + x9 + x11 = 142
  c1: x0 + x4 + x5 + x6 + x9 + x11 = 135
  c2: x0 + x1 + x3 + x8 + x9 + x11 = 135
  c3: x0 + x3 + x4 + x7 + x8 + x9 + x10 + x11 + x12 = 142
  c4: x0 + x2 + x4 + x5 + x8 + x10 = 128
  c5: x3 + x7 + x10 = 13
  c6: x0 + x4 + x6 + x7 + x9 + x10 + x11 = 138
  c7: x2 + x4 + x6 + x10 + x11 = 33
  c8: x4 + x6 + x10 + x11 = 20
  c9: x4 + x5 + x8 + x9 + x10 + x11 + x12 = 35

Bounds
  x0 >= 0
  x1 >= 0
  x2 >= 0
  x3 >= 0
  x4 >= 0
  x5 >= 0
  x6 >= 0
  x7 >= 0
  x8 >= 0
  x9 >= 0
  x10 >= 0
  x11 >= 0
  x12 >= 0

Generals
  x0 x1 x2 x3 x4 x5 x6 x7 x8 x9 x10 x11 x12

End
